; benchmark generated from python API
(set-info :status unknown)
(declare-fun x_month () (_ BitVec 32))
(declare-fun x_year () (_ BitVec 32))
(declare-fun x_day () (_ BitVec 32))
(declare-fun y_month () (_ BitVec 32))
(declare-fun y_year () (_ BitVec 32))
(declare-fun y_day () (_ BitVec 32))
(assert
 (let (($x555 (or (= (_ bv4 32) x_month) (= (_ bv6 32) x_month) (= (_ bv9 32) x_month) (= (_ bv11 32) x_month))))
 (let (($x6881 (and (= (_ bv0 32) (bvsmod x_year (_ bv4 32))) (and (distinct (_ bv0 32) (bvsmod x_year (_ bv100 32))) true))))
 (let ((?x699 (ite (= (_ bv2 32) x_month) (ite (or $x6881 (= (_ bv0 32) (bvsmod x_year (_ bv400 32)))) (_ bv29 32) (_ bv28 32)) (ite $x555 (_ bv30 32) (_ bv31 32)))))
 (let (($x3133 (bvsle x_day ?x699)))
 (let (($x3826 (bvsle (_ bv1 32) x_day)))
 (let (($x6049 (bvsle (_ bv1 32) x_month)))
 (let (($x7532 (bvsge (_ bv12 32) x_month)))
 (let (($x2091 (bvsle (_ bv1901 32) x_year)))
 (or (and (= (_ bv1900 32) x_year) (bvsle (_ bv3 32) x_month) $x7532 $x3826 $x3133) (and $x2091 (bvsge (_ bv2099 32) x_year) $x6049 $x7532 $x3826 $x3133) (and (= (_ bv2100 32) x_year) $x6049 (bvsge (_ bv2 32) x_month) $x3826 $x3133)))))))))))
(assert
 (let (($x3118 (or (= (_ bv4 32) y_month) (= (_ bv6 32) y_month) (= (_ bv9 32) y_month) (= (_ bv11 32) y_month))))
 (let (($x5292 (and (= (_ bv0 32) (bvsmod y_year (_ bv4 32))) (and (distinct (_ bv0 32) (bvsmod y_year (_ bv100 32))) true))))
 (let (($x1331 (= (_ bv2 32) y_month)))
 (let ((?x6947 (ite $x1331 (ite (or $x5292 (= (_ bv0 32) (bvsmod y_year (_ bv400 32)))) (_ bv29 32) (_ bv28 32)) (ite $x3118 (_ bv30 32) (_ bv31 32)))))
 (let (($x1133 (bvsle y_day ?x6947)))
 (let (($x2319 (bvsle (_ bv1 32) y_day)))
 (let (($x458 (bvsle (_ bv1 32) y_month)))
 (let (($x987 (bvsge (_ bv12 32) y_month)))
 (let (($x1987 (bvsle (_ bv1901 32) y_year)))
 (or (and (= (_ bv1900 32) y_year) (bvsle (_ bv3 32) y_month) $x987 $x2319 $x1133) (and $x1987 (bvsge (_ bv2099 32) y_year) $x458 $x987 $x2319 $x1133) (and (= (_ bv2100 32) y_year) $x458 (bvsge (_ bv2 32) y_month) $x2319 $x1133))))))))))))
(assert
 (and (= (_ bv2022 32) x_year) (= (_ bv1 32) x_month) (= (_ bv15 32) x_day)))
(assert
 (let ((?x3620 (bvadd x_month (bvadd (bvmul (_ bv0 32) (_ bv12 32)) (_ bv13 32)))))
 (let ((?x3342 (bvsub (ite (bvuge ?x3620 (_ bv2147483648 32)) (bvsub ?x3620 (_ bv0 32)) ?x3620) (_ bv1 32))))
 (let ((?x2407 (bvsmod ?x3342 (_ bv12 32))))
 (let ((?x2662 (bvadd ?x2407 (_ bv1 32))))
 (let (($x2578 (= (_ bv11 32) ?x2662)))
 (let (($x766 (= (_ bv9 32) ?x2662)))
 (let (($x3827 (= (_ bv6 32) ?x2662)))
 (let (($x1403 (= (_ bv4 32) ?x2662)))
 (let ((?x1192 (bvsdiv ?x3342 (_ bv12 32))))
 (let ((?x3821 (ite (and (bvuge ?x3342 (_ bv2147483648 32)) (and (distinct (_ bv0 32) ?x2407) true)) (bvsub ?x1192 (_ bv1 32)) ?x1192)))
 (let ((?x1527 (bvadd x_year ?x3821)))
 (let (($x5112 (or (and (= (_ bv0 32) (bvsmod ?x1527 (_ bv4 32))) (and (distinct (_ bv0 32) (bvsmod ?x1527 (_ bv100 32))) true)) (= (_ bv0 32) (bvsmod ?x1527 (_ bv400 32))))))
 (let (($x2705 (= (_ bv2 32) ?x2662)))
 (let ((?x1870 (ite $x2705 (ite $x5112 (_ bv29 32) (_ bv28 32)) (ite (or $x1403 $x3827 $x766 $x2578) (_ bv30 32) (_ bv31 32)))))
 (let ((?x835 (ite (bvsgt (_ bv1 32) x_day) (_ bv1 32) (ite (bvsgt x_day ?x1870) ?x1870 x_day))))
 (let ((?x6925 (ite (bvsgt (_ bv1 32) ?x835) (_ bv1 32) (ite (bvsgt ?x835 ?x1870) ?x1870 ?x835))))
 (let ((?x4457 (ite $x2705 (ite $x5112 (_ bv31 32) (_ bv31 32)) (ite (= (_ bv1 32) ?x2662) (ite $x5112 (_ bv0 32) (_ bv0 32)) (_ bv0 32)))))
 (let ((?x4154 (ite $x1403 (ite $x5112 (_ bv91 32) (_ bv90 32)) (ite (= (_ bv3 32) ?x2662) (ite $x5112 (_ bv60 32) (_ bv59 32)) ?x4457))))
 (let ((?x3630 (ite $x3827 (ite $x5112 (_ bv152 32) (_ bv151 32)) (ite (= (_ bv5 32) ?x2662) (ite $x5112 (_ bv121 32) (_ bv120 32)) ?x4154))))
 (let ((?x534 (ite (= (_ bv8 32) ?x2662) (ite $x5112 (_ bv213 32) (_ bv212 32)) (ite (= (_ bv7 32) ?x2662) (ite $x5112 (_ bv182 32) (_ bv181 32)) ?x3630))))
 (let ((?x2758 (ite (= (_ bv10 32) ?x2662) (ite $x5112 (_ bv274 32) (_ bv273 32)) (ite $x766 (ite $x5112 (_ bv244 32) (_ bv243 32)) ?x534))))
 (let ((?x5447 (ite (= (_ bv12 32) ?x2662) (ite $x5112 (_ bv335 32) (_ bv334 32)) (ite $x2578 (ite $x5112 (_ bv305 32) (_ bv304 32)) ?x2758))))
 (let ((?x2068 (bvadd (bvmul (_ bv365 32) (bvsub ?x1527 (_ bv1 32))) (bvsdiv (bvsub ?x1527 (_ bv1 32)) (_ bv4 32)))))
 (let ((?x852 (bvadd (bvsub ?x2068 (bvsdiv (bvsub ?x1527 (_ bv1 32)) (_ bv100 32))) (bvsdiv (bvsub ?x1527 (_ bv1 32)) (_ bv400 32)))))
 (let ((?x1500 (bvadd (bvadd (bvsub (bvadd (bvadd ?x852 ?x5447) (bvsub ?x6925 (_ bv1 32))) (_ bv730179 32)) (_ bv40 32)) (_ bv730179 32))))
 (let ((?x1848 (bvsmod ?x1500 (_ bv146097 32))))
 (let ((?x5266 (bvsdiv ?x1848 (_ bv36524 32))))
 (let ((?x437 (ite (bvsle (_ bv4 32) ?x5266) (_ bv3 32) ?x5266)))
 (let ((?x2514 (bvsub ?x1848 (bvmul ?x437 (_ bv36524 32)))))
 (let ((?x5143 (bvsmod ?x2514 (_ bv1461 32))))
 (let ((?x4020 (bvsdiv ?x5143 (_ bv365 32))))
 (let ((?x1026 (ite (bvsle (_ bv4 32) ?x4020) (_ bv3 32) ?x4020)))
 (let ((?x3742 (bvadd (bvadd (bvmul (bvsdiv ?x1500 (_ bv146097 32)) (_ bv400 32)) (bvmul ?x437 (_ bv100 32))) (bvmul (bvsdiv ?x2514 (_ bv1461 32)) (_ bv4 32)))))
 (let ((?x2736 (bvadd (bvadd ?x3742 ?x1026) (_ bv1 32))))
 (let (($x4486 (or (and (= (_ bv0 32) (bvsmod ?x2736 (_ bv4 32))) (and (distinct (_ bv0 32) (bvsmod ?x2736 (_ bv100 32))) true)) (= (_ bv0 32) (bvsmod ?x2736 (_ bv400 32))))))
 (let ((?x2912 (bvsub ?x5143 (bvmul ?x1026 (_ bv365 32)))))
 (let ((?x2299 (ite $x4486 (_ bv31 32) (_ bv31 32))))
 (let (($x1865 (bvsge ?x2912 ?x2299)))
 (let ((?x1125 (ite $x1865 (bvadd (bvsub ?x2912 ?x2299) (_ bv1 32)) (bvadd (bvsub ?x2912 (ite $x4486 (_ bv0 32) (_ bv0 32))) (_ bv1 32)))))
 (let ((?x2168 (ite $x4486 (_ bv60 32) (_ bv59 32))))
 (let (($x2121 (bvsge ?x2912 ?x2168)))
 (let ((?x3373 (ite $x4486 (_ bv91 32) (_ bv90 32))))
 (let (($x4067 (bvsge ?x2912 ?x3373)))
 (let ((?x3393 (ite $x4067 (bvadd (bvsub ?x2912 ?x3373) (_ bv1 32)) (ite $x2121 (bvadd (bvsub ?x2912 ?x2168) (_ bv1 32)) ?x1125))))
 (let ((?x3028 (ite $x4486 (_ bv121 32) (_ bv120 32))))
 (let (($x2335 (bvsge ?x2912 ?x3028)))
 (let ((?x2655 (ite $x4486 (_ bv152 32) (_ bv151 32))))
 (let (($x8130 (bvsge ?x2912 ?x2655)))
 (let ((?x5462 (ite $x8130 (bvadd (bvsub ?x2912 ?x2655) (_ bv1 32)) (ite $x2335 (bvadd (bvsub ?x2912 ?x3028) (_ bv1 32)) ?x3393))))
 (let ((?x7036 (ite $x4486 (_ bv182 32) (_ bv181 32))))
 (let (($x6431 (bvsge ?x2912 ?x7036)))
 (let ((?x7455 (ite $x4486 (_ bv213 32) (_ bv212 32))))
 (let (($x1852 (bvsge ?x2912 ?x7455)))
 (let ((?x4259 (ite $x1852 (bvadd (bvsub ?x2912 ?x7455) (_ bv1 32)) (ite $x6431 (bvadd (bvsub ?x2912 ?x7036) (_ bv1 32)) ?x5462))))
 (let ((?x5713 (ite $x4486 (_ bv244 32) (_ bv243 32))))
 (let (($x4379 (bvsge ?x2912 ?x5713)))
 (let ((?x1172 (ite $x4486 (_ bv274 32) (_ bv273 32))))
 (let (($x4237 (bvsge ?x2912 ?x1172)))
 (let ((?x8016 (ite $x4237 (bvadd (bvsub ?x2912 ?x1172) (_ bv1 32)) (ite $x4379 (bvadd (bvsub ?x2912 ?x5713) (_ bv1 32)) ?x4259))))
 (let ((?x859 (ite $x4486 (_ bv305 32) (_ bv304 32))))
 (let (($x7876 (bvsge ?x2912 ?x859)))
 (let ((?x4007 (ite $x4486 (_ bv335 32) (_ bv334 32))))
 (let (($x1289 (bvsge ?x2912 ?x4007)))
 (let ((?x2472 (ite $x1289 (bvadd (bvsub ?x2912 ?x4007) (_ bv1 32)) (ite $x7876 (bvadd (bvsub ?x2912 ?x859) (_ bv1 32)) ?x8016))))
 (let (($x1953 (= (_ bv0 32) (_ bv40 32))))
 (let ((?x5820 (ite $x8130 (_ bv6 32) (ite $x2335 (_ bv5 32) (ite $x4067 (_ bv4 32) (ite $x2121 (_ bv3 32) (ite $x1865 (_ bv2 32) (_ bv1 32))))))))
 (let ((?x591 (ite $x7876 (_ bv11 32) (ite $x4237 (_ bv10 32) (ite $x4379 (_ bv9 32) (ite $x1852 (_ bv8 32) (ite $x6431 (_ bv7 32) ?x5820)))))))
 (let ((?x6414 (ite $x1289 (_ bv12 32) ?x591)))
 (and (= y_year (ite $x1953 ?x1527 ?x2736)) (= y_month (ite $x1953 ?x2662 ?x6414)) (= y_day (ite $x1953 ?x6925 ?x2472))))))))))))))))))))))))))))))))))))))))))))))))))))))))))))))))))))))))
(assert
 (not (and (= (_ bv2023 32) y_year) (= (_ bv2 32) y_month) (= (_ bv24 32) y_day))))
(check-sat)
